projet_m2_wvcp/reduced_wvcp_dzn/GEOM60a.clq.dzn
cliques=[{0,1,7,8,24,29,33,37,39},{0,1,8,9,24,29,33,37,39},{2,18,20,25,27,28,30,31,32},{3,7,8,11,19,24,29,33,37,39},{4,10,12,15,16,17,23,40},{1,5,9,21,24,39,42},{6,15,16,17,36},{3,7,8,11,19,24,29,33,37,39},{3,7,8,11,19,24,29,33,37,39},{0,1,8,9,24,29,33,37,39},{4,10,12,15,16,17,23,40},{3,7,8,11,19,24,29,33,37,39},{4,10,12,15,16,17,23,40},{10,13,15,23,26,34,40},{6,14,36},{4,10,12,15,16,17,23,40},{4,10,12,15,16,17,23,40},{4,10,12,15,16,17,23,40},{2,18,20,25,27,28,30,31,32},{3,7,8,11,19,24,29,33,37,39},{2,18,20,25,27,28,30,31,32},{1,5,9,21,24,39,42},{0,1,7,22,29,33,35,37,39,42},{4,10,12,15,16,17,23,40},{3,7,8,11,19,24,29,33,37,39},{2,18,20,25,27,28,30,31,32},{10,13,15,23,26,34,40},{2,18,20,25,27,28,30,31,32},{2,18,20,25,28,27,30,31,32},{3,7,8,11,19,24,29,33,37,39},{2,18,20,25,27,28,30,31,32},{2,18,20,25,27,28,31,30,32},{2,18,20,25,27,28,30,31,32},{3,7,8,11,19,24,29,33,37,39},{10,15,16,17,23,34,40},{0,1,7,22,29,33,35,37,39,42},{4,10,12,15,16,17,36,40},{3,7,8,11,19,24,29,33,37,39},{2,18,25,27,28,30,31,38,41},{3,7,8,11,19,24,29,33,37,39},{4,10,12,15,16,17,23,40},{2,18,20,25,27,28,30,31,41},{0,1,9,24,29,33,37,39,42},{0,7,22,29,33,37,43}];
nr_cliques=44;
