projet_m2_wvcp/reduced_wvcp_dzn/GEOM60a.dzn
name="GEOM60a";
nr_vertices=44;
nr_edges=240;
neighborhoods=[{1,7,8,9,22,24,26,29,33,34,35,37,39,42,43},{0,5,7,8,9,21,22,24,29,33,35,37,39,42},{18,20,25,27,28,30,31,32,38,41},{7,8,11,19,24,29,33,37,39},{10,12,15,16,17,23,36,40},{1,9,21,24,39,42},{14,15,16,17,36},{0,1,3,8,11,19,22,24,29,33,35,37,39,42,43},{0,1,3,7,9,11,19,21,24,29,33,37,39},{0,1,5,8,21,24,29,33,35,37,39,42},{4,12,13,15,16,17,23,26,34,36,40},{3,7,8,19,21,24,29,33,37,39},{4,10,15,16,17,23,36,40},{10,15,23,26,34,40,43},{6,25,36,38,41},{4,6,10,12,13,16,17,22,23,26,34,36,40,43},{4,6,10,12,15,17,23,26,34,36,40},{4,6,10,12,15,16,23,34,36,40},{2,20,25,27,28,30,31,32,38,41},{3,7,8,11,24,29,33,37,39},{2,18,25,27,28,30,31,32,41},{1,5,8,9,11,24,39,42},{0,1,7,15,23,26,29,33,34,35,37,39,42,43},{4,10,12,13,15,16,17,22,26,34,40,43},{0,1,3,5,7,8,9,11,19,21,29,33,37,39,42},{2,14,18,20,27,28,30,31,32,38,41},{0,10,13,15,16,22,23,34,40,43},{2,18,20,25,28,30,31,32,38,41},{2,18,20,25,27,30,31,32,38,41},{0,1,3,7,8,9,11,19,22,24,33,35,37,39,42,43},{2,18,20,25,27,28,31,32,38,41},{2,18,20,25,27,28,30,32,38,41},{2,18,20,25,27,28,30,31},{0,1,3,7,8,9,11,19,22,24,29,35,37,39,42,43},{0,10,13,15,16,17,22,23,26,35,40,43},{0,1,7,9,22,29,33,34,37,39,42},{4,6,10,12,14,15,16,17,40},{0,1,3,7,8,9,11,19,22,24,29,33,35,39,42,43},{2,14,18,25,27,28,30,31,41},{0,1,3,5,7,8,9,11,19,21,22,24,29,33,35,37,42},{4,10,12,13,15,16,17,23,26,34,36},{2,14,18,20,25,27,28,30,31,38},{0,1,5,7,9,21,22,24,29,33,35,37,39},{0,7,13,15,22,23,26,29,33,34,37}];
weights=[10,10,10,10,10,10,10,9,9,9,9,9,9,9,9,8,8,8,8,8,8,8,7,7,6,6,6,6,6,5,5,5,5,4,4,4,4,3,3,2,2,2,1,1];
